3 5 6 5 0 2 8 7 -1 -1 
6 7 0 1 4 5 7 -1 9 -1 
2 3 3 1 -1 9 1 7 0 -1 
2 1 9 4 7 -1 7 3 2 -1 
2 8 -1 2 1 4 3 3 1 -1 
9 1 3 2 1 4 0 7 2 -1 
0 9 0 -1 4 -1 6 7 0 -1 
5 2 5 5 1 4 -1 1 1 -1 
3 7 3 -1 7 2 6 9 2 -1 
3 6 3 -1 7 6 2 9 5 -1 
-1 7 6 7 0 -1 4 0 4 -1 
7 -1 1 2 2 2 4 6 4 -1 
6 -1 4 0 2 6 9 1 1 -1 
-1 6 4 3 3 3 1 5 5 -1 
1 5 2 2 3 2 8 4 1 -1 
